#number of items n
45

#knapsack capacity b
775

#constraint coefficients a
24 41 19 41 21 24 41 5 46 35 13 37 27 9 50 38 49 41 46 8 5 29 39 35 12 14 44 26 38 21 10 28 26 20 6 44 10 45 9 13 39 42 24 20 15 

#linear coefficients c
0 71 0 0 0 42 0 0 0 0 0 29 0 0 68 0 41 0 0 38 0 0 0 0 0 40 0 0 0 0 0 0 0 0 0 0 0 0 0 0 49 0 0 0 68 

#quadratic coefficients C: i < j
0 0 0 0 0 0 0 54 0 0 27 88 0 79 0 0 0 0 0 0 4 0 0 0 0 44 0 0 100 0 0 0 1 0 0 27 0 0 0 23 0 0 0 0 
0 0 29 0 0 88 64 0 0 54 0 0 94 0 0 0 0 22 0 0 0 0 0 0 0 0 0 0 0 0 0 73 0 0 0 0 65 0 9 0 33 0 0 
0 0 0 0 0 10 0 0 86 0 85 0 0 69 0 45 40 27 60 0 0 0 83 64 0 0 0 72 0 0 0 0 62 0 0 0 0 0 0 0 0 30 
42 0 0 0 0 0 0 0 83 0 0 0 0 0 87 0 0 0 0 52 0 0 0 0 0 0 0 30 0 48 0 0 0 0 0 58 0 0 87 0 26 
0 64 0 0 0 0 0 0 0 0 65 0 0 0 0 81 60 0 0 16 82 0 19 0 0 39 93 44 0 0 0 0 97 0 0 0 0 0 0 51 
0 29 0 0 0 73 0 46 0 1 0 0 0 0 0 0 74 0 0 74 0 0 0 10 0 53 0 0 0 0 0 0 0 0 6 0 0 0 17 
0 0 23 0 24 0 36 87 0 60 0 56 0 0 81 0 0 0 68 0 0 0 63 0 74 0 42 0 93 0 0 92 0 0 14 0 0 62 
3 0 0 0 0 0 0 0 0 0 30 64 0 0 0 4 0 0 0 0 6 0 0 0 0 0 0 0 74 38 0 0 0 0 0 0 0 
39 0 78 0 72 0 0 0 48 0 47 87 60 0 0 0 0 0 0 57 0 0 0 0 32 0 10 0 87 51 0 0 0 28 0 0 
0 0 0 0 0 0 0 0 10 44 68 21 71 0 20 20 36 0 0 66 65 0 0 0 43 0 0 0 66 0 96 0 0 0 0 
56 0 0 0 0 0 0 0 0 0 4 0 0 0 0 0 0 0 0 0 0 0 0 0 0 49 5 34 0 60 0 0 50 0 
0 0 0 0 0 80 0 0 0 55 0 71 0 0 48 0 9 0 34 0 0 0 0 0 0 12 0 0 0 0 0 0 54 
0 59 0 46 0 0 0 0 0 0 0 0 0 18 97 0 0 0 0 45 0 0 0 0 0 0 0 0 0 0 0 0 
0 65 0 0 0 0 0 45 0 75 0 0 35 0 25 0 0 0 0 0 0 0 21 80 0 0 45 49 0 0 81 
0 0 0 0 0 0 0 0 92 0 51 0 0 0 0 0 0 0 0 0 0 49 0 0 35 0 0 0 0 68 
0 0 0 0 0 0 0 31 0 0 0 34 0 0 0 9 0 33 0 88 0 0 0 0 81 0 0 51 0 
0 0 0 0 0 27 0 0 0 0 48 0 0 0 0 55 0 0 0 0 98 0 0 0 0 0 0 0 
0 4 0 0 0 0 0 81 0 81 32 0 0 71 0 0 74 0 93 0 0 0 0 0 0 88 0 
0 6 89 0 0 0 0 95 18 0 0 73 0 0 0 0 0 0 0 64 46 0 45 39 0 40 
0 0 0 0 0 0 70 5 0 0 0 10 0 0 0 0 0 0 0 0 0 0 19 0 0 
0 0 96 0 0 87 0 0 0 0 88 0 55 0 0 0 71 0 0 0 0 0 0 0 
0 0 0 0 0 0 0 0 0 0 0 0 0 0 0 0 42 0 0 0 0 0 0 
0 0 0 0 0 0 0 0 72 10 0 39 49 0 0 0 0 0 0 0 0 0 
0 0 22 0 72 0 0 0 0 0 0 52 0 89 76 0 0 8 0 0 47 
0 0 0 0 0 0 0 64 57 17 75 0 0 0 0 98 24 0 0 0 
0 0 0 10 0 0 1 0 0 0 0 0 0 0 99 0 97 0 26 
0 47 0 0 0 94 74 0 38 0 0 0 0 0 0 0 0 0 
0 5 0 23 0 63 0 0 0 0 73 0 0 47 0 98 0 
58 0 12 33 0 95 0 6 0 0 0 0 0 0 0 0 
0 0 0 0 0 12 0 47 0 0 0 75 54 0 0 
0 0 3 0 56 0 0 0 0 0 25 0 6 0 
0 0 22 18 27 80 0 88 3 0 77 71 0 
0 0 0 0 0 96 0 0 0 0 66 0 
0 0 0 0 0 0 0 0 0 0 97 
0 0 52 0 0 0 0 0 0 0 
0 0 0 0 0 0 0 0 0 
0 0 0 0 80 0 0 71 
0 0 0 0 0 0 24 
0 3 0 34 100 0 
0 0 64 0 0 
6 0 0 0 
91 35 0 
16 0 
0 

#cubic coefficients D: i < j < k
#i: 0
0 89 32 0 0 71 0 23 0 42 0 23 93 0 95 0 0 0 0 0 0 0 0 0 0 96 0 0 0 0 95 0 47 0 65 0 0 0 0 0 94 0 0 
0 0 0 0 18 0 0 0 0 0 0 0 36 77 0 0 45 7 0 0 0 0 54 0 0 0 74 0 0 0 0 9 0 0 92 0 0 61 0 53 0 0 
0 0 0 0 0 0 0 47 0 14 0 0 0 77 0 0 0 10 0 0 0 0 22 0 0 46 0 0 0 0 0 6 15 0 7 0 58 0 0 11 88 
22 75 0 93 0 0 27 0 27 92 0 0 0 0 0 30 64 93 17 0 0 0 72 0 12 0 0 0 43 0 0 22 0 0 0 0 86 88 0 45 
0 0 0 0 0 44 0 75 0 0 0 0 86 0 0 3 0 0 0 0 0 0 0 0 0 0 0 0 0 0 0 0 17 0 0 0 0 0 0 
0 0 0 0 34 0 0 0 0 0 2 77 0 0 0 14 0 7 0 0 0 0 0 0 0 0 0 0 71 0 0 0 0 0 0 0 0 87 
0 0 0 0 30 0 22 0 0 60 0 0 0 82 0 0 0 0 0 0 0 0 0 0 0 99 0 0 94 19 0 20 94 0 0 0 59 
0 0 0 0 0 0 0 20 0 0 0 0 0 0 1 0 0 0 0 89 0 0 79 0 0 0 0 0 8 0 0 0 0 0 90 0 
0 0 0 0 17 0 67 0 0 0 0 0 0 0 0 0 0 0 0 0 0 45 4 0 58 0 0 0 0 0 0 0 0 0 0 
0 0 0 0 98 0 1 0 0 0 0 0 0 83 100 0 4 0 0 0 0 0 0 0 0 0 0 0 0 61 0 0 0 22 
37 0 0 0 0 0 0 0 0 0 0 0 0 0 0 0 68 0 0 0 64 0 0 0 0 0 0 11 0 0 0 4 0 
0 0 99 94 0 0 0 72 88 0 41 10 0 0 36 0 0 0 0 53 0 48 83 45 0 0 32 0 91 0 40 0 
0 28 0 0 0 0 83 0 0 0 89 0 93 0 0 83 0 0 0 28 0 5 0 67 0 0 0 0 0 0 0 
0 56 48 0 0 0 0 0 0 0 0 0 0 83 0 4 0 0 0 10 1 92 0 56 100 0 0 0 0 51 
98 0 0 0 33 0 0 40 0 22 0 0 18 0 0 0 0 0 0 0 77 0 0 0 0 45 98 0 0 
0 0 82 0 47 100 47 30 0 0 0 0 0 18 51 0 69 46 57 57 0 92 0 0 0 0 0 0 
0 0 64 0 22 0 0 0 0 3 0 0 0 0 0 0 0 0 0 0 7 0 0 0 0 0 0 
0 0 76 0 0 0 0 33 0 0 0 0 0 21 0 61 0 88 0 0 0 0 0 0 0 0 
0 0 15 0 0 0 14 0 0 0 0 0 0 0 0 0 0 0 0 0 16 0 0 0 0 
0 0 0 0 80 0 0 0 70 46 0 0 0 0 0 15 0 0 97 0 0 0 0 11 
0 77 45 0 0 15 66 0 46 0 40 0 50 77 0 0 14 0 0 23 0 0 61 
32 0 0 0 86 0 0 0 0 0 0 0 14 0 0 0 42 88 0 0 0 0 
67 0 0 0 0 0 0 0 0 0 0 38 0 82 0 83 39 0 0 0 0 
0 95 99 0 0 71 0 0 0 0 0 0 0 19 19 45 0 0 0 0 
0 0 73 32 0 0 0 0 0 0 0 70 85 0 0 0 0 0 0 
53 0 0 0 0 0 0 0 0 33 0 0 0 0 0 0 32 0 
0 0 0 0 0 0 99 0 0 0 0 94 5 0 0 0 0 
0 0 0 0 0 30 1 0 0 0 0 0 0 0 45 0 
0 0 0 68 0 41 0 0 0 0 6 0 0 25 0 
0 0 0 0 2 0 0 0 0 0 0 0 57 0 
0 0 0 0 0 0 0 25 0 0 55 23 0 
0 20 0 0 88 0 0 0 0 0 0 0 
0 0 0 90 26 0 0 0 0 41 0 
24 0 0 0 0 0 0 0 6 93 
35 0 59 0 0 0 0 0 0 
0 0 0 0 0 0 0 0 
68 0 0 0 0 0 0 
0 0 51 0 0 3 
0 0 0 0 0 
0 0 0 0 
46 0 0 
9 0 
15 

#i: 1
0 0 0 0 0 0 0 0 0 0 0 0 0 0 0 0 0 0 0 0 0 0 61 0 0 0 0 0 0 93 0 10 0 83 0 0 0 0 0 0 40 0 
0 0 0 0 0 91 73 60 0 0 0 0 94 0 45 0 0 52 0 0 90 0 0 44 0 0 81 66 0 55 13 58 0 0 0 0 87 0 0 0 0 
0 34 0 0 22 0 0 0 0 0 0 0 47 32 0 0 0 0 0 81 0 0 0 59 69 0 0 0 0 0 100 0 0 0 0 5 0 8 0 0 
0 0 43 85 0 81 0 78 0 0 86 33 0 0 11 17 0 0 0 0 0 0 0 19 73 0 0 0 0 0 78 0 0 0 0 0 29 0 0 
0 74 0 0 0 0 0 0 0 0 0 0 0 0 0 0 0 0 0 58 0 35 0 0 87 0 0 23 0 0 10 0 0 0 6 0 0 0 
79 94 0 0 67 0 0 92 0 0 0 12 0 0 0 40 0 0 0 0 0 4 0 0 0 0 0 0 0 0 0 0 0 15 0 9 21 
0 0 0 0 10 79 0 0 4 0 0 0 0 61 0 0 0 0 96 0 0 0 29 0 98 0 0 0 0 42 50 0 0 0 0 0 
0 0 0 94 0 0 0 0 0 0 0 0 81 84 100 24 44 0 0 0 0 95 0 0 0 53 0 0 0 28 5 93 0 0 0 
0 0 0 0 0 0 60 0 5 0 0 0 0 0 0 20 0 0 50 30 0 0 0 0 0 97 0 0 0 0 0 93 0 49 
0 0 0 100 0 76 0 0 0 0 0 0 46 0 0 0 0 0 0 79 0 0 0 0 0 1 37 0 0 5 0 33 0 
0 0 0 0 0 0 27 0 0 0 28 0 0 0 0 0 0 0 0 0 0 99 0 0 0 0 0 0 0 0 0 0 
0 0 0 0 0 0 0 0 48 0 0 0 0 0 0 92 0 0 0 0 0 6 0 0 0 0 0 0 95 0 0 
0 39 3 0 17 25 0 0 32 0 0 0 75 0 14 0 0 0 0 72 69 13 0 68 46 0 0 0 0 0 
0 0 62 0 0 87 0 0 0 0 28 0 0 0 0 0 88 2 0 93 0 0 0 0 0 58 70 68 26 
0 0 0 0 44 0 17 0 0 0 0 0 0 0 0 76 0 0 0 89 0 13 0 0 67 0 0 0 
22 90 0 0 0 0 0 0 34 20 23 0 0 7 0 0 0 0 0 0 0 0 52 44 0 0 75 
0 0 0 88 96 0 95 0 0 0 0 0 84 0 61 0 15 0 0 0 0 0 9 25 0 0 
0 0 0 0 0 9 0 0 0 0 0 83 0 0 70 0 0 0 0 0 40 0 0 0 0 
0 0 0 0 0 0 0 0 0 0 0 89 0 85 5 0 0 49 96 4 0 0 0 0 
53 0 56 0 0 0 0 0 0 0 0 0 0 0 0 0 87 0 7 86 0 0 0 
0 73 0 0 0 0 0 0 0 0 48 0 0 0 0 0 0 0 20 0 0 21 
57 0 0 19 76 0 0 0 29 0 0 0 86 0 0 81 0 0 24 0 74 
0 7 0 0 0 17 39 0 0 77 0 0 0 0 0 90 0 0 0 0 
0 0 0 0 0 11 0 0 0 0 0 0 0 0 0 0 0 48 0 
0 0 0 89 0 0 0 0 0 0 93 0 46 0 0 0 15 0 
0 0 0 58 0 0 0 0 40 0 38 0 0 0 0 0 15 
0 0 0 98 92 0 20 0 70 0 0 0 0 0 88 0 
0 0 23 0 0 0 0 0 65 0 0 4 0 0 0 
98 0 0 25 0 0 0 0 0 0 0 99 96 0 
39 0 0 0 0 76 10 0 0 0 52 0 0 
0 0 0 0 0 0 0 0 0 0 0 38 
0 0 62 0 75 0 62 59 0 0 0 
0 0 60 0 0 0 0 10 0 0 
16 1 0 0 0 0 0 0 32 
0 0 2 0 0 18 0 0 
0 0 0 7 0 0 0 
0 0 0 0 0 0 
0 20 0 71 0 
31 0 0 76 
93 0 0 
0 0 
0 

#i: 2
0 0 0 0 69 9 0 55 0 22 0 0 76 0 0 0 81 0 0 0 88 0 26 71 0 0 0 0 0 0 0 0 98 0 0 0 0 0 0 0 0 
9 0 17 98 0 0 0 0 67 0 0 0 0 28 0 0 0 0 96 0 56 0 0 23 0 98 0 14 0 71 93 15 0 0 0 0 42 0 0 0 
69 0 0 0 81 0 0 0 0 0 12 81 0 0 0 0 0 0 43 0 0 0 96 0 27 0 0 0 0 0 0 0 0 0 80 7 0 0 0 
0 48 0 0 83 0 0 0 0 0 51 85 0 0 0 0 0 0 0 0 0 0 0 0 0 0 29 0 89 0 0 0 93 0 63 0 0 0 
0 0 0 84 0 0 0 0 0 0 0 0 58 0 0 0 0 27 0 31 21 0 0 5 0 88 21 0 0 0 0 0 0 36 0 0 0 
0 0 0 0 0 0 0 0 0 0 0 6 0 0 0 10 51 0 0 0 35 0 33 0 41 0 0 0 0 29 0 0 70 0 0 0 
0 69 0 0 0 78 0 0 0 0 0 0 0 27 0 0 0 0 0 0 0 0 0 38 35 0 0 0 0 10 0 22 0 0 0 
0 39 79 0 0 0 0 0 0 0 0 34 0 0 0 0 0 26 67 0 0 0 14 0 0 0 0 0 95 27 0 19 46 0 
0 0 0 0 0 0 0 0 0 0 53 34 0 0 0 0 0 0 0 0 28 0 0 0 0 0 0 0 0 58 0 0 81 
0 0 0 0 60 0 0 0 0 45 56 0 0 0 0 0 0 0 0 0 0 0 0 33 0 0 0 0 0 0 0 0 
0 52 0 42 0 29 0 26 0 0 0 67 0 0 7 0 25 0 0 0 0 0 0 0 99 0 0 0 0 0 48 
0 0 0 0 8 69 0 0 0 0 45 51 0 4 81 0 0 9 0 0 0 11 0 0 0 0 55 0 0 0 
0 0 0 0 0 0 0 0 51 46 0 0 0 0 0 0 0 0 0 78 0 0 0 9 0 0 0 0 0 
0 0 81 0 0 92 33 0 97 0 0 0 51 0 0 0 0 0 53 0 0 0 74 0 0 0 18 0 
67 0 0 85 0 0 0 0 0 0 0 0 24 0 0 0 0 0 0 0 0 0 0 59 0 74 36 
0 0 0 35 0 0 72 0 0 0 0 0 0 0 40 41 76 0 0 0 0 0 0 0 0 60 
84 0 0 0 7 69 0 16 14 0 0 0 0 0 0 0 0 26 27 0 0 83 0 0 45 
0 0 98 0 0 0 0 0 0 0 0 0 29 24 0 28 61 0 5 10 15 0 0 0 
0 0 0 0 0 0 0 0 0 0 0 0 0 0 0 0 3 0 0 4 0 3 84 
43 88 0 0 83 0 0 0 97 0 0 0 0 76 0 0 0 0 0 0 0 0 
0 0 0 0 0 0 0 72 0 0 0 0 0 0 0 0 0 0 0 0 0 
40 0 0 0 86 0 63 0 0 0 0 60 0 0 21 0 0 99 0 1 
0 0 0 64 0 0 0 19 40 0 0 58 0 100 0 9 49 30 0 
0 0 0 0 0 56 72 0 0 0 69 0 63 85 0 32 0 46 
0 0 53 0 0 0 0 0 51 0 1 0 0 0 25 85 0 
0 90 0 0 0 2 0 0 97 0 0 0 0 0 0 38 
70 0 0 0 12 74 36 0 0 0 0 0 0 0 20 
0 99 0 0 0 0 0 0 0 0 0 0 38 0 
0 0 22 81 0 34 38 24 0 0 0 0 0 
0 0 0 0 0 0 62 0 15 0 0 41 
0 0 64 0 1 0 7 91 51 0 0 
43 70 32 0 0 0 0 0 0 0 
0 0 0 0 0 0 0 0 3 
0 0 0 0 0 0 0 0 
0 0 0 0 0 0 0 
0 0 0 85 0 18 
0 0 0 0 0 
0 0 0 0 
0 49 72 
0 0 
0 

#i: 3
0 0 41 0 0 0 11 0 0 0 0 0 0 28 0 86 84 0 0 74 43 0 0 0 0 0 0 0 0 0 0 0 0 0 0 0 19 0 37 37 
0 0 0 0 0 60 34 40 0 0 0 95 0 0 0 0 0 0 0 0 0 0 0 0 0 0 0 0 0 80 0 0 0 0 0 82 0 0 0 
48 0 0 0 75 0 0 0 0 0 0 0 0 0 0 0 0 0 0 84 72 0 0 0 78 0 0 0 0 0 0 0 29 0 0 96 0 0 
0 0 0 0 0 0 0 0 0 0 0 0 55 0 7 0 0 0 0 0 0 0 0 0 0 0 0 0 51 0 0 0 0 0 0 18 0 
0 0 0 99 0 0 0 29 0 0 0 0 70 0 0 0 0 0 55 74 0 0 0 0 56 0 0 0 0 0 0 0 0 92 0 0 
66 0 40 0 0 4 0 0 0 0 0 0 62 35 0 43 0 0 4 0 0 93 0 0 17 0 0 0 0 0 0 0 100 0 98 
0 48 0 21 73 28 9 0 0 10 0 0 0 0 0 33 0 0 0 82 52 89 0 0 0 0 0 0 0 0 0 41 0 0 
0 74 0 0 0 0 0 90 0 0 0 0 0 97 0 4 0 68 0 70 80 0 92 0 0 38 0 0 0 0 0 0 0 
35 0 14 0 0 0 0 19 57 0 0 0 0 0 0 0 0 0 0 39 0 0 0 70 25 0 0 92 0 0 0 0 
0 0 0 38 0 0 0 0 0 0 0 25 0 0 0 55 0 36 71 0 40 0 0 0 0 0 0 0 0 0 0 
0 0 0 0 0 0 4 0 0 0 32 41 0 0 67 89 0 0 0 55 0 0 73 0 0 0 0 0 0 0 
0 76 0 0 0 0 16 0 0 0 0 0 0 11 76 0 0 0 50 0 0 0 60 0 22 0 0 32 0 
0 0 0 91 0 13 0 0 0 0 0 0 0 0 28 0 0 51 0 0 0 0 0 67 0 87 0 19 
0 40 0 0 19 0 0 0 98 0 0 0 19 60 0 0 15 0 0 0 0 0 68 0 85 0 0 
0 0 75 0 16 0 64 0 0 0 0 85 0 0 0 0 0 0 0 0 44 0 0 0 0 57 
0 0 0 0 26 67 0 0 0 0 0 44 0 0 0 0 60 7 85 0 0 0 0 0 51 
0 0 34 0 0 61 81 0 96 81 0 73 0 0 0 0 0 0 0 0 0 0 58 0 
85 7 0 67 0 0 46 0 0 28 0 0 60 0 0 0 0 14 0 0 0 0 93 
0 0 0 13 0 49 0 38 0 0 0 0 0 0 0 0 0 0 0 0 0 0 
0 0 0 0 0 0 0 100 12 0 86 5 31 0 0 0 0 0 97 0 0 
0 0 88 0 0 0 0 0 1 66 0 0 0 0 0 0 0 68 0 0 
29 0 69 20 0 76 0 0 0 58 0 40 0 0 85 37 0 0 98 
0 40 0 0 0 15 0 0 0 0 0 0 0 28 0 0 96 0 
0 39 34 93 0 92 0 0 0 0 0 88 45 21 0 0 0 
52 0 88 0 51 0 0 22 0 0 70 0 0 0 8 0 
0 50 0 0 59 3 0 0 0 0 61 48 2 0 0 
78 0 0 90 0 0 51 0 0 0 0 2 14 0 
100 0 70 0 0 0 60 0 0 0 0 0 0 
0 54 92 0 0 0 0 39 0 0 0 0 
0 0 0 0 13 47 0 67 0 0 0 
66 0 5 0 27 0 0 0 49 0 
33 75 0 0 0 0 0 0 0 
0 96 0 0 0 0 16 0 
31 48 0 0 0 0 0 
43 0 0 0 0 0 
0 0 23 0 64 
0 0 58 0 
0 0 0 
0 0 
0 

#i: 4
0 4 1 0 0 0 0 0 0 0 0 16 75 0 0 0 23 0 0 0 0 0 0 94 0 0 0 0 0 0 0 0 3 0 0 40 0 25 86 
25 0 0 0 0 0 0 0 0 100 79 0 0 0 0 0 92 0 0 0 0 64 0 0 0 0 0 0 0 0 0 0 0 1 0 0 0 0 
0 0 49 0 87 0 0 0 0 0 0 33 0 0 0 0 0 0 42 0 0 67 0 0 0 0 0 0 68 0 0 0 0 0 1 0 0 
45 94 77 0 0 0 63 0 0 0 0 0 0 34 0 0 0 0 0 0 48 0 58 0 0 0 0 34 12 84 0 94 0 0 0 0 
49 0 0 0 0 0 0 0 0 0 0 0 0 0 43 0 0 0 0 0 0 0 0 0 0 58 91 56 0 1 0 89 28 70 0 
0 0 0 50 0 0 51 0 0 50 0 0 0 0 0 0 0 0 0 0 0 0 0 50 54 0 0 13 0 0 0 0 0 0 
9 0 0 0 50 0 0 0 0 0 0 81 0 0 6 0 0 97 0 0 0 0 0 0 0 97 0 0 0 88 0 0 0 
0 0 0 0 0 0 14 12 0 0 0 0 0 0 93 0 0 13 0 0 0 0 77 0 0 0 44 0 0 0 0 0 
83 0 0 0 0 0 0 0 97 0 0 0 0 0 0 0 99 0 0 0 63 0 0 0 0 0 40 90 0 0 0 
0 0 0 0 57 0 0 0 0 0 0 0 0 0 0 0 0 0 0 34 0 0 94 0 59 0 0 0 0 39 
14 0 87 0 13 0 0 0 69 0 0 38 0 57 83 0 0 0 79 0 0 0 0 0 0 0 0 0 0 
0 0 0 0 0 0 0 0 0 0 0 0 0 99 0 0 0 0 0 49 66 47 0 0 29 0 0 0 
0 84 0 0 0 0 0 0 0 0 0 0 0 0 0 0 0 0 0 0 61 0 0 60 0 0 0 
0 31 0 0 63 0 0 0 0 0 0 0 90 0 0 0 0 0 0 0 11 0 0 13 0 4 
0 82 0 0 0 0 0 90 27 0 0 0 5 0 0 19 0 88 13 0 15 66 0 0 0 
0 0 0 0 0 0 0 8 0 26 0 0 0 100 0 0 0 0 3 0 0 25 0 74 
0 0 93 0 0 85 0 59 0 0 0 0 0 0 0 0 0 0 41 0 0 78 0 
0 31 55 0 0 0 0 29 0 0 0 0 0 0 0 97 0 0 78 47 0 0 
0 18 95 0 0 85 0 0 22 97 0 0 0 0 0 0 19 0 0 0 0 
0 0 0 22 0 0 79 0 0 0 0 79 55 0 19 79 0 0 0 0 
0 84 18 0 0 0 0 81 0 0 0 0 3 0 0 0 3 0 0 
0 0 0 0 60 0 0 18 45 0 0 0 5 47 34 0 0 32 
0 29 88 0 0 0 0 43 96 0 9 0 53 29 0 0 0 
0 0 0 0 0 0 0 0 0 0 0 0 0 0 0 63 
0 0 53 0 0 73 0 52 0 0 23 0 0 0 0 
0 92 0 55 0 0 0 0 0 0 0 0 91 0 
0 0 0 0 0 0 0 0 0 90 0 0 0 
0 0 0 0 0 0 31 0 0 0 78 0 
0 0 0 0 0 0 0 0 0 22 0 
0 0 0 0 0 0 0 0 0 0 
0 22 0 0 12 0 0 0 0 
0 0 84 0 0 0 94 0 
0 0 0 0 0 44 0 
0 0 81 0 0 0 
0 0 0 0 0 
0 53 0 0 
0 0 0 
0 0 
0 

#i: 5
0 0 0 0 0 0 0 98 34 0 87 0 0 0 0 6 0 0 0 0 0 0 0 0 0 0 0 0 0 0 0 0 0 0 0 0 0 0 
0 0 0 0 0 0 0 11 93 0 80 0 0 0 26 0 0 0 100 0 50 0 0 0 0 0 0 0 0 41 0 79 0 0 0 0 62 
0 0 95 0 0 0 50 0 0 0 0 0 70 0 0 0 0 0 57 0 0 0 0 0 0 0 0 0 93 0 0 0 0 0 0 0 
47 0 0 0 0 0 0 0 0 27 0 0 0 0 0 0 0 0 0 0 0 0 6 0 0 0 0 80 0 0 0 0 11 91 92 
0 0 0 0 0 0 17 0 0 0 0 0 94 0 0 0 0 0 81 88 0 0 0 0 0 0 96 0 0 0 87 0 0 0 
0 0 58 0 0 0 100 78 15 0 0 8 29 0 57 0 0 56 0 0 0 0 0 0 0 0 0 32 0 0 0 0 0 
0 0 0 0 6 0 0 0 0 74 76 78 0 0 0 0 0 78 0 73 0 0 0 0 0 36 14 0 0 0 53 0 
0 0 0 0 19 0 0 0 0 0 0 94 0 10 0 0 0 0 0 0 0 0 0 0 28 0 0 0 0 93 0 
0 0 7 0 0 0 0 0 0 58 92 0 44 16 0 25 0 0 0 0 0 0 80 0 0 25 0 0 0 69 
0 0 0 0 0 73 0 0 0 0 0 20 72 0 35 0 0 33 0 0 99 0 0 0 0 0 76 6 0 
0 0 0 0 0 84 64 53 21 0 0 0 39 74 31 0 0 0 0 0 32 0 0 0 28 61 0 0 
0 0 0 0 0 0 0 0 8 0 0 0 0 0 0 0 0 4 69 77 0 0 42 0 0 0 0 
48 0 0 0 0 0 0 0 51 65 71 0 61 0 0 55 25 0 0 0 0 0 0 72 0 3 
59 0 0 0 0 0 82 62 0 0 0 0 0 0 0 16 0 0 0 0 0 0 41 0 0 
0 0 31 77 0 87 0 0 0 0 76 0 35 0 0 82 0 0 4 63 0 0 0 0 
0 0 0 0 0 0 0 54 0 0 0 0 0 0 0 0 0 0 0 49 28 100 0 
4 0 0 0 0 34 0 0 58 0 0 60 0 0 44 75 0 84 0 0 0 35 
64 0 0 0 76 0 0 0 0 0 0 0 0 0 0 0 0 0 0 29 0 
0 0 77 0 0 0 0 0 0 0 0 0 0 0 11 0 0 0 19 0 
0 0 0 0 73 0 1 61 0 53 0 55 0 0 0 0 100 0 0 
30 0 0 91 0 0 0 0 0 0 0 0 0 0 0 0 0 78 
88 0 0 0 0 26 0 23 0 0 0 97 17 0 0 0 0 
74 0 0 0 0 0 0 51 0 0 0 0 0 0 74 0 
0 0 0 71 10 84 0 0 0 0 0 0 0 69 0 
0 0 75 1 0 0 0 0 0 0 0 16 60 0 
0 0 0 87 0 68 43 0 0 0 16 0 0 
36 42 0 11 0 0 0 0 0 0 0 0 
0 0 53 0 0 0 12 3 0 0 0 
0 92 0 0 0 0 0 0 37 0 
0 46 0 75 0 94 49 0 0 
23 0 0 49 0 0 0 0 
0 0 0 0 36 0 0 
0 0 0 0 28 0 
0 0 0 0 0 
0 0 0 0 
0 93 35 
0 0 
7 

#i: 6
0 40 0 46 0 0 0 0 0 67 0 0 49 49 0 0 0 0 98 0 25 0 0 0 0 0 0 0 0 0 0 0 0 14 0 9 0 
0 0 0 0 0 90 0 0 0 0 0 93 0 0 0 0 0 0 0 0 0 0 0 46 0 0 30 0 45 0 97 0 0 87 0 0 
0 0 0 0 0 0 0 42 0 0 0 0 0 60 0 87 0 0 46 0 0 0 25 0 0 0 0 73 0 80 0 0 0 0 0 
0 5 0 52 0 99 43 0 55 0 0 60 86 0 1 17 0 0 0 0 98 87 53 0 0 0 0 0 0 0 0 0 50 0 
55 0 0 0 89 0 0 0 0 0 11 0 95 0 0 0 0 0 0 0 0 88 21 0 0 0 0 75 0 0 0 0 0 
94 0 0 80 55 85 0 0 48 66 0 0 63 0 0 27 0 47 0 0 0 0 0 0 98 0 24 0 0 0 0 0 
0 0 8 32 89 98 16 0 0 0 0 0 0 0 83 0 0 0 0 13 58 54 0 0 0 0 0 0 0 0 20 
1 0 0 57 79 0 0 0 58 0 14 0 0 0 0 0 0 0 0 0 0 3 0 0 0 0 73 63 0 0 
0 0 57 0 0 0 0 0 68 97 0 0 0 0 58 29 64 48 0 0 0 0 0 0 0 81 0 0 0 
58 0 81 0 0 0 86 84 0 8 0 5 62 0 96 0 0 0 0 0 0 0 0 0 0 0 0 0 
0 0 0 46 0 0 0 0 0 0 0 0 0 0 0 0 60 0 0 0 74 0 0 0 0 0 0 
0 0 0 0 0 0 0 0 75 0 0 0 0 0 0 0 0 0 0 99 0 50 0 70 0 0 
0 0 52 0 0 47 0 0 0 0 0 0 0 0 0 56 12 0 0 82 7 17 66 66 0 
53 0 0 42 57 0 0 0 0 0 0 56 0 0 0 0 0 0 23 0 0 0 94 0 
33 37 0 0 0 0 6 0 0 0 10 0 0 0 84 0 0 0 0 77 0 80 71 
0 0 5 0 0 0 0 73 0 0 0 0 41 0 35 0 0 0 0 0 14 0 
0 49 95 0 28 0 0 0 0 0 0 0 0 0 0 0 0 0 79 0 1 
0 0 0 0 0 0 0 0 0 0 0 40 0 0 31 31 0 0 0 0 
5 0 0 0 0 60 0 0 0 98 0 0 0 0 0 0 0 0 0 
0 0 0 0 0 0 0 0 0 0 0 63 0 53 0 0 0 0 
27 0 0 0 0 79 49 0 0 0 57 0 0 0 0 0 25 
0 41 26 0 9 0 62 0 0 10 0 0 0 0 0 21 
97 0 0 0 0 0 0 0 0 0 0 33 37 6 33 
0 0 0 22 0 0 0 0 0 0 1 0 0 0 
0 0 0 0 73 21 64 0 82 0 94 0 90 
2 0 0 0 0 18 0 0 0 0 0 0 
97 93 0 0 0 0 0 0 0 0 0 
48 0 0 0 15 33 0 0 0 0 
0 0 0 0 0 0 72 0 0 
0 0 0 0 0 0 30 0 
0 26 48 50 0 0 0 
70 0 32 0 0 86 
60 0 0 0 0 
0 0 0 95 
0 7 22 
37 37 
73 

#i: 7
0 0 0 0 0 0 0 0 0 27 0 0 0 0 0 0 0 0 0 0 0 0 0 0 0 0 0 62 0 0 0 58 0 0 0 0 
0 0 0 0 0 92 0 0 0 0 0 0 57 0 0 0 0 0 0 0 0 0 0 0 6 0 0 0 0 0 0 0 52 0 0 
0 61 0 0 0 42 0 0 0 0 95 9 0 0 0 0 0 2 0 0 64 0 0 25 0 0 0 0 0 0 0 0 0 0 
0 0 0 0 0 0 0 60 0 70 0 0 0 0 0 68 0 0 0 0 22 82 0 0 0 21 0 0 70 67 0 0 0 
0 53 0 0 11 0 0 10 0 0 0 93 0 0 31 25 0 0 0 0 0 0 0 36 0 70 0 83 0 0 0 0 
59 0 0 0 0 4 0 0 0 0 0 61 50 0 0 68 0 87 0 0 0 26 0 0 0 0 0 0 0 0 0 
0 0 0 0 0 0 0 0 0 0 0 0 0 0 95 0 99 0 0 0 0 0 0 72 0 0 0 0 92 0 
0 0 0 20 45 0 0 74 0 0 8 14 39 0 0 0 0 0 0 41 0 0 0 0 0 81 0 0 29 
0 0 0 0 0 55 0 10 0 0 0 0 0 93 0 0 21 0 0 0 0 0 0 0 75 0 0 0 
0 0 0 0 68 74 0 0 0 0 26 0 0 43 0 0 0 91 0 0 0 92 0 0 0 0 0 
0 0 0 0 100 0 0 0 0 0 0 70 0 0 0 0 0 0 0 53 0 0 72 65 0 0 
0 26 0 0 0 54 0 0 0 0 0 0 0 0 12 0 0 0 0 0 0 68 0 0 86 
0 84 0 89 0 76 0 44 0 0 0 86 0 33 0 0 30 15 46 28 0 0 32 0 
19 0 0 0 92 98 0 0 0 0 0 0 0 0 0 36 0 21 0 0 21 0 0 
0 0 68 0 35 0 0 0 0 0 0 0 0 82 99 17 0 0 0 0 0 0 
3 28 0 0 0 0 0 0 0 0 0 41 0 0 19 0 0 0 77 0 0 
18 0 0 0 0 67 0 0 0 0 0 31 59 0 0 0 0 0 48 0 
0 0 0 10 69 0 0 0 0 0 0 0 0 27 40 0 49 56 10 
0 84 0 40 0 0 0 0 0 0 0 0 0 0 0 0 0 0 
0 0 0 0 0 0 0 85 0 0 71 0 72 0 0 0 88 
0 0 0 30 0 0 70 4 0 0 0 0 0 0 0 39 
0 0 0 0 56 0 0 98 0 0 95 0 0 0 20 
0 0 16 0 0 0 0 90 0 0 0 0 0 0 
0 0 0 0 0 0 55 0 0 0 0 79 0 
0 0 0 0 58 0 80 0 0 0 69 57 
49 0 80 0 42 0 84 88 0 0 0 
0 0 0 64 77 0 0 0 0 0 
0 0 0 21 35 0 73 0 0 
0 50 0 0 0 0 0 0 
0 0 0 0 0 0 0 
0 65 0 0 0 0 
0 0 0 0 9 
0 0 0 0 
0 0 0 
0 44 
98 

#i: 8
0 0 0 0 0 79 0 0 0 0 11 0 0 0 0 0 0 0 91 88 0 89 0 0 0 0 48 0 3 92 0 0 0 59 85 
0 0 40 0 0 54 0 67 31 0 0 0 0 0 1 0 0 0 67 62 0 91 56 0 0 0 0 14 0 58 43 0 0 0 
0 0 0 0 0 92 0 43 0 0 47 0 0 0 0 0 74 0 0 0 98 87 0 0 24 0 0 0 0 34 0 0 0 
0 83 0 0 0 34 0 0 56 0 96 0 0 0 0 0 0 0 0 0 0 0 0 0 0 0 12 0 0 47 0 58 
0 0 0 0 0 36 0 0 0 48 17 58 0 0 0 99 44 0 19 0 0 0 60 20 0 0 0 78 0 0 0 
0 0 0 0 0 0 85 0 0 0 0 0 74 29 0 0 0 0 0 0 0 58 0 0 54 0 0 0 70 0 
0 0 0 0 0 0 0 75 0 0 88 0 0 0 0 0 8 0 0 87 0 0 0 0 31 0 0 19 0 
0 0 0 72 0 0 0 29 0 0 0 0 0 0 84 0 0 0 0 69 0 0 0 0 0 0 0 0 
24 0 0 0 0 0 71 0 0 0 0 0 0 52 13 0 0 0 14 0 0 0 0 0 37 0 56 
0 0 0 55 50 0 0 0 0 0 0 38 0 0 0 0 66 59 0 0 0 96 62 0 0 0 
31 0 0 0 81 0 65 0 34 0 0 0 31 0 0 0 81 73 0 0 0 96 0 0 0 
69 0 0 0 98 0 0 0 66 0 37 73 51 8 0 0 0 0 0 0 79 97 0 0 
0 0 0 0 0 0 0 83 56 0 5 54 0 0 0 0 0 54 0 0 1 0 0 
11 0 0 88 8 30 0 0 0 0 0 0 0 0 0 0 0 94 0 77 0 0 
0 0 0 0 16 0 97 0 0 0 0 0 0 14 0 0 0 0 0 0 4 
0 0 0 0 0 0 74 0 0 51 0 0 72 0 0 0 0 0 0 0 
0 0 0 0 0 0 0 0 0 0 0 0 0 0 0 0 16 0 72 
68 0 0 0 0 0 0 0 10 0 0 0 63 0 0 66 0 0 
0 0 45 0 0 0 0 0 0 0 0 0 26 0 0 0 0 
0 29 18 31 96 0 0 0 44 98 0 0 47 0 0 0 
0 0 66 13 0 0 0 0 0 4 0 0 6 29 82 
0 86 0 0 19 5 0 45 0 88 50 0 0 0 
0 0 0 0 8 0 45 24 0 0 0 54 0 
0 0 0 0 0 60 0 0 37 0 0 0 
17 0 0 67 16 0 0 0 0 0 0 
42 0 0 0 0 0 0 0 0 0 
0 0 0 0 0 45 0 80 0 
0 49 0 0 0 0 15 0 
0 0 29 0 0 0 0 
0 0 0 0 0 0 
0 0 36 0 0 
87 0 0 0 
68 78 0 
0 64 
0 

#i: 9
0 0 0 0 43 22 0 0 75 0 0 0 0 0 0 70 6 0 95 0 95 0 52 74 0 63 0 0 0 0 0 0 0 0 
0 3 52 0 29 0 0 0 0 0 0 0 0 0 0 34 0 0 0 0 0 0 0 72 0 0 0 0 82 0 81 48 73 
0 0 0 0 0 0 0 22 0 0 16 0 0 0 0 0 0 0 0 0 61 71 66 34 0 29 16 0 0 0 0 69 
0 0 0 0 0 0 0 0 0 0 0 40 100 16 20 0 25 94 0 0 0 0 0 18 0 62 0 0 0 47 0 
79 0 7 45 0 33 50 56 0 0 22 0 0 0 0 0 0 0 0 0 0 0 0 0 0 0 0 0 0 0 
0 0 32 0 0 0 0 97 66 0 0 0 0 0 99 0 0 0 0 43 92 0 0 0 0 0 0 57 0 
61 0 0 0 25 0 0 53 95 0 0 0 0 0 0 0 0 0 0 10 0 0 0 0 0 0 0 0 
0 0 0 0 23 0 0 87 0 75 12 0 0 0 67 20 0 55 27 4 26 0 0 13 11 0 0 
0 0 0 0 0 0 84 46 0 0 0 0 0 0 63 0 0 0 0 0 7 0 0 49 0 0 
0 0 0 0 0 0 0 0 0 0 0 17 34 0 73 57 83 81 0 47 68 0 70 0 0 
0 0 0 0 0 44 37 41 0 0 0 0 0 0 0 0 0 79 0 18 0 60 44 0 
15 0 0 0 0 0 74 0 0 0 0 0 0 0 0 0 0 0 0 0 0 0 99 
17 0 0 0 0 0 0 6 43 0 0 0 0 0 0 6 0 0 0 22 0 0 
48 1 85 9 0 0 0 0 51 0 6 0 69 0 72 0 0 0 0 93 57 
0 0 0 0 0 0 0 28 0 91 0 85 0 0 0 0 0 0 0 0 
77 0 0 0 0 0 0 0 0 57 92 76 50 0 0 0 46 0 0 
0 72 0 68 0 0 0 0 0 0 38 0 0 0 0 0 0 0 
0 55 33 29 0 32 0 0 0 0 0 94 0 0 0 0 0 
0 0 0 0 0 0 0 80 0 0 0 0 0 0 0 0 
87 14 96 0 0 94 4 0 0 0 0 38 0 0 0 
0 13 41 0 0 0 0 68 0 0 0 0 0 0 
0 41 8 0 0 59 0 0 0 0 0 0 0 
0 71 0 0 0 0 0 9 0 0 0 24 
0 68 49 99 0 0 0 0 0 0 85 
0 0 7 0 0 0 0 0 33 0 
49 0 0 0 0 0 0 0 42 
0 0 0 26 0 0 2 0 
0 0 0 0 11 0 0 
0 24 0 0 90 0 
0 0 0 0 0 
0 0 98 0 
0 0 0 
0 0 
0 

#i: 10
34 0 0 95 0 3 0 0 32 80 100 0 0 60 0 0 15 24 0 0 0 0 0 0 0 0 0 0 0 0 63 81 0 
0 0 34 0 0 0 0 1 0 0 0 0 48 19 0 0 49 0 0 86 46 0 0 0 0 0 0 13 0 0 18 0 
0 0 7 0 0 0 0 0 64 0 0 0 0 0 0 0 0 0 0 0 0 0 0 8 0 0 0 0 0 0 0 
0 0 0 0 85 0 0 0 0 0 0 0 0 0 0 0 0 0 35 0 0 79 0 0 0 0 0 0 0 1 
0 95 0 0 0 45 0 0 0 0 0 50 0 0 0 81 0 0 49 0 83 91 73 0 0 0 50 0 0 
8 0 44 0 71 0 0 0 0 0 0 0 0 48 0 0 0 92 84 0 72 0 0 0 21 18 0 0 
0 0 0 0 0 0 21 2 0 0 0 0 61 62 0 0 29 0 93 0 0 95 46 0 0 0 0 
37 99 0 17 0 87 0 12 0 24 29 59 0 45 0 9 0 83 0 0 0 0 0 0 0 99 
0 0 0 0 10 0 0 95 0 0 41 0 0 0 0 0 0 0 0 0 0 0 5 52 0 
0 0 0 0 0 0 0 0 0 0 6 0 0 0 48 0 9 0 0 0 89 75 0 0 
0 0 0 0 0 0 0 0 0 0 0 0 0 0 0 24 0 0 91 35 4 0 0 
0 75 0 22 0 0 0 0 0 52 0 34 0 73 28 0 0 0 79 0 0 90 
0 0 72 0 15 34 0 0 0 0 0 0 67 0 0 0 0 0 0 30 0 
0 0 0 12 0 46 0 0 91 0 0 61 0 0 0 19 0 0 0 0 
0 9 0 0 0 0 0 0 0 0 0 0 0 0 0 30 0 0 13 
1 0 68 60 0 0 12 0 0 45 47 89 0 38 0 0 0 0 
0 0 0 0 0 70 0 0 0 0 0 0 0 0 0 79 76 
0 0 0 30 0 1 0 0 99 0 0 0 0 0 0 0 
0 0 0 74 0 83 0 0 0 0 0 0 0 37 0 
74 0 0 27 0 0 12 0 0 0 14 0 0 0 
0 20 3 0 0 0 0 0 21 91 0 0 53 
0 0 0 0 0 0 0 0 44 0 0 0 
0 0 0 78 0 0 0 0 0 0 0 
0 0 0 0 0 27 0 0 0 0 
0 0 0 0 14 0 37 0 74 
0 0 33 0 0 0 96 0 
0 0 85 0 0 0 0 
0 0 0 0 0 0 
0 0 0 0 0 
0 0 0 0 
85 1 0 
83 0 
0 

#i: 11
0 0 75 0 0 0 0 0 0 0 0 0 6 0 0 0 100 0 0 0 84 0 0 0 47 0 0 0 0 0 0 0 
0 0 0 77 0 0 0 0 0 0 0 52 21 0 0 8 0 0 0 35 0 0 58 0 42 0 0 0 95 0 78 
0 0 32 0 0 31 100 0 86 0 0 31 54 0 0 0 0 0 90 29 0 0 0 0 0 0 12 0 0 0 
0 0 72 0 48 0 0 0 0 0 0 39 0 42 0 0 0 0 61 0 41 72 96 0 61 0 0 0 0 
0 0 3 0 16 0 0 24 0 78 0 0 0 0 0 0 0 0 56 0 0 85 97 0 74 55 0 0 
0 0 0 0 0 0 0 42 0 0 0 4 50 0 0 0 33 70 0 0 0 0 0 0 0 0 0 
55 0 0 86 76 0 46 0 83 0 0 0 0 0 0 0 0 0 0 0 14 0 0 10 0 0 
0 0 0 0 0 0 0 100 68 0 0 0 0 0 0 0 0 0 0 0 0 0 20 0 0 
0 0 78 0 0 0 0 0 0 0 68 0 0 9 0 0 92 79 0 97 0 0 0 0 
0 0 0 0 33 0 0 0 53 0 0 0 0 0 0 0 0 0 0 0 7 0 0 
0 0 0 0 0 21 0 0 0 90 54 0 0 0 0 0 0 0 0 0 17 0 
91 0 67 96 0 0 0 58 0 0 0 0 0 21 0 0 0 0 31 0 0 
0 0 0 61 71 98 0 0 0 0 74 0 8 0 0 0 0 0 0 0 
0 0 35 9 0 0 0 0 0 64 0 0 11 0 0 0 2 0 0 
0 0 0 0 0 0 0 32 0 0 0 40 0 0 0 0 62 89 
0 32 7 75 43 87 0 0 89 0 81 12 0 0 75 0 0 
69 0 0 0 0 0 0 38 0 0 0 0 0 0 39 0 
17 0 49 0 0 0 99 0 45 0 61 94 0 0 0 
0 0 0 0 29 0 5 22 21 77 0 7 0 78 
0 0 0 73 0 12 0 0 0 0 0 0 0 
0 0 0 6 74 0 0 3 91 0 24 0 
0 0 0 100 16 0 0 0 0 0 98 
70 25 0 0 38 0 9 0 0 24 
0 0 12 0 3 0 0 0 0 
0 0 0 0 0 0 36 0 
30 0 0 0 0 0 0 
0 0 0 42 82 0 
0 53 0 71 0 
0 26 0 0 
0 0 0 
0 0 
27 

#i: 12
0 0 0 0 0 0 8 0 0 0 0 0 53 0 0 0 0 0 0 52 0 23 0 31 77 0 0 37 0 0 0 
0 0 0 0 0 22 0 0 91 0 0 0 0 0 80 0 0 86 0 0 93 0 0 0 0 82 0 0 0 0 
0 0 0 0 0 0 0 0 65 23 0 84 36 0 24 72 6 0 0 0 71 0 0 0 6 0 0 0 0 
88 0 0 0 0 0 0 52 0 0 0 0 0 21 0 0 3 0 0 0 87 0 0 83 0 0 0 0 
0 0 0 0 0 100 0 93 0 0 24 0 0 0 79 0 0 0 0 0 0 0 0 0 0 0 0 
77 90 0 0 0 0 0 73 0 73 0 0 66 0 0 0 0 0 0 42 0 43 0 0 0 0 
15 49 0 0 9 0 73 0 0 0 0 22 0 35 0 0 0 0 0 0 0 0 73 0 0 
4 0 0 32 99 0 0 0 0 36 15 0 0 0 0 0 0 0 0 0 0 0 0 0 
72 0 0 88 0 0 0 0 0 0 0 83 3 0 0 0 0 0 0 0 0 0 0 
80 31 0 0 0 0 0 57 0 0 76 10 93 0 98 80 0 0 62 3 93 0 
20 0 0 0 0 0 0 0 0 0 23 0 0 26 0 0 0 0 61 0 0 
0 0 51 0 59 74 0 0 7 0 75 0 0 33 0 0 0 0 26 78 
0 0 0 0 0 16 0 0 0 39 77 0 45 0 0 0 34 0 88 
0 0 48 0 0 45 0 0 0 31 0 0 0 0 0 0 0 0 
0 86 72 46 42 34 0 0 0 0 0 24 15 0 41 0 71 
0 0 0 35 0 0 54 7 0 0 0 0 56 22 0 0 
0 0 0 0 0 66 0 0 0 0 0 0 0 84 94 
55 70 0 0 0 0 0 0 0 0 0 91 0 0 
0 0 0 0 0 0 0 0 0 0 0 0 0 
0 0 0 0 0 33 0 0 0 0 0 81 
55 77 0 0 0 23 0 0 0 0 0 
0 0 86 14 0 0 0 0 0 0 
0 0 0 0 0 0 0 57 88 
0 0 5 61 69 0 0 45 
0 0 0 0 0 0 0 
0 92 38 0 0 25 
0 0 0 16 0 
41 75 60 0 
0 0 0 
0 0 
0 

#i: 13
0 0 0 0 0 0 0 0 0 0 0 46 96 12 0 0 24 0 0 0 18 0 0 8 0 15 25 0 100 0 
0 0 0 0 2 0 0 64 47 0 54 33 18 10 91 0 6 0 99 74 0 0 58 4 57 0 0 0 0 
0 0 0 0 71 26 41 0 0 55 0 0 0 0 0 0 0 0 63 0 0 0 0 20 0 37 0 61 
0 0 0 0 0 0 0 38 0 0 0 85 0 0 83 0 96 0 0 0 32 37 21 91 0 0 16 
0 0 0 0 99 0 0 46 0 0 0 0 0 35 0 0 0 78 0 36 0 0 0 40 0 61 
0 0 0 0 0 0 0 0 70 0 1 0 0 0 0 0 0 0 0 0 74 0 0 0 59 
0 0 78 0 0 11 0 0 39 0 0 0 32 0 0 11 30 24 0 0 76 0 0 86 
0 0 0 0 61 0 0 0 45 24 41 0 0 90 51 0 0 0 0 0 0 94 0 
34 0 0 0 0 0 14 0 0 6 0 0 0 0 87 0 0 0 0 7 0 0 
0 39 53 52 0 0 0 46 0 0 0 27 0 76 0 89 70 90 48 0 0 
0 71 90 0 40 21 0 0 0 0 0 0 99 0 0 0 0 35 0 0 
0 0 0 14 47 44 0 0 80 0 0 0 0 0 0 0 0 0 0 
0 59 91 0 0 16 0 70 0 0 0 0 0 0 0 33 0 34 
7 20 0 5 0 0 0 0 61 0 0 0 0 58 0 0 0 
0 0 0 0 0 0 15 0 82 0 0 0 0 0 0 34 
0 0 0 57 0 0 0 0 0 18 0 0 0 39 88 
0 1 0 0 0 0 0 99 42 0 0 14 0 0 
62 0 8 0 0 0 0 100 0 84 33 0 0 
0 0 93 0 30 0 29 0 0 0 67 0 
0 0 0 26 0 90 76 0 0 84 0 
0 0 0 82 0 0 0 0 0 20 
0 0 5 0 0 0 0 0 48 
0 0 0 2 0 0 0 71 
0 0 0 0 0 0 0 
0 0 0 0 0 0 
0 0 0 16 0 
0 49 0 4 
0 0 0 
14 0 
30 

#i: 14
0 0 0 0 0 13 0 0 0 0 0 0 0 92 0 0 0 0 0 0 0 0 0 0 85 0 0 0 0 
85 0 0 0 0 0 0 55 0 0 0 0 0 16 0 0 0 0 0 0 8 0 0 0 0 0 0 0 
0 0 0 43 0 0 13 0 0 0 0 0 0 0 0 0 0 0 55 67 0 0 0 75 0 7 51 
0 0 0 0 0 0 0 89 0 45 0 0 0 0 0 0 0 24 0 0 65 0 0 84 0 15 
0 30 0 50 0 0 0 0 0 0 0 0 0 0 0 0 0 16 0 0 0 0 0 53 0 
67 0 0 0 0 96 0 0 0 0 0 0 0 0 0 0 0 0 0 0 73 47 0 0 
12 0 0 0 81 0 0 60 0 0 0 74 0 0 0 0 91 0 0 0 88 39 0 
0 0 0 81 0 0 0 0 0 0 0 0 0 0 0 0 0 11 0 24 72 79 
0 0 97 0 35 0 0 86 0 0 0 0 46 48 0 25 0 0 0 0 0 
0 0 35 0 0 0 0 0 3 5 0 0 0 93 0 0 0 65 0 0 
0 44 0 82 0 0 0 0 0 87 31 0 0 0 0 59 0 0 9 
0 0 0 0 0 0 51 0 95 71 0 77 0 58 0 0 23 0 
0 0 0 1 0 0 0 0 0 0 95 0 75 0 0 0 0 
0 0 96 0 0 11 0 0 0 0 0 42 0 0 10 0 
0 0 53 0 0 0 92 75 0 0 0 0 0 0 0 
0 0 85 0 0 14 0 0 0 0 67 0 34 0 
0 0 0 93 98 0 0 0 72 0 0 0 79 
0 0 0 0 0 0 0 16 0 80 0 12 
0 0 0 19 0 0 0 0 0 0 0 
0 0 0 0 62 0 67 90 0 46 
0 0 0 0 17 0 0 0 0 
0 0 0 68 0 0 32 0 
0 0 0 0 0 0 0 
0 0 0 39 0 4 
0 0 0 1 53 
51 0 0 0 
0 0 85 
57 0 
0 

#i: 15
0 0 0 0 0 0 0 0 0 0 0 4 0 38 0 0 0 0 0 0 0 0 0 0 75 0 0 0 
59 37 0 0 0 13 0 0 0 0 0 0 0 53 0 16 0 0 28 0 0 30 71 0 3 0 0 
0 0 0 0 0 0 0 52 0 0 0 0 0 0 0 0 75 0 75 0 0 0 0 0 0 1 
22 0 0 0 0 29 0 0 0 0 0 25 0 0 0 0 0 0 0 63 55 0 0 0 0 
0 45 0 2 0 0 69 0 0 0 0 67 0 0 0 73 19 0 0 0 0 58 66 0 
0 0 58 0 0 0 0 0 90 78 17 0 0 0 0 0 89 0 0 37 0 0 0 
0 0 0 0 0 0 0 54 0 0 0 0 0 0 0 0 0 0 0 39 0 0 
19 0 0 0 71 0 0 60 27 0 0 0 0 0 0 93 0 0 0 44 0 
0 32 0 0 0 0 0 0 0 22 53 92 0 51 0 0 0 0 0 0 
0 0 0 16 0 0 61 0 0 0 0 0 53 0 0 0 98 0 78 
82 25 99 0 0 55 0 0 0 78 80 0 0 0 0 0 0 0 
0 0 0 0 0 0 43 0 83 0 53 0 0 0 73 0 0 
0 53 0 11 93 0 55 0 0 61 0 0 0 0 0 0 
0 0 0 0 0 0 0 0 0 0 0 9 0 0 0 
0 63 0 0 83 0 20 0 36 0 0 0 0 0 
54 0 0 0 0 0 98 32 0 0 0 21 0 
0 0 0 82 0 0 77 0 0 0 0 0 
0 0 0 0 0 0 32 13 66 60 9 
30 0 0 0 0 0 0 0 0 0 
85 0 46 0 0 0 0 76 0 
0 0 0 0 0 46 0 0 
4 0 0 0 0 0 0 
0 72 0 0 0 0 
56 0 0 0 0 
0 0 0 0 
11 56 0 
0 0 
33 

#i: 16
0 0 0 22 0 0 42 0 0 0 0 0 24 0 0 84 0 0 0 43 0 0 0 0 0 0 0 
30 98 0 0 0 75 27 0 0 2 0 0 66 0 0 0 0 0 0 0 0 81 0 0 0 11 
76 0 50 62 27 0 0 0 75 0 0 74 69 73 0 65 0 0 0 0 0 0 0 0 94 
0 0 0 0 0 0 0 32 0 10 0 0 0 61 0 0 51 0 67 90 0 0 0 0 
0 0 0 0 69 0 74 0 0 0 65 0 22 0 0 0 92 0 72 19 22 0 0 
0 0 13 0 0 0 0 0 39 47 0 0 0 0 0 90 0 0 0 0 29 0 
0 0 0 0 0 60 0 40 0 0 0 0 0 0 0 69 0 0 0 0 0 
0 0 0 0 0 0 0 0 14 0 0 0 41 82 0 0 0 63 0 0 
0 79 35 0 0 0 0 0 0 0 0 0 0 0 6 0 0 0 0 
0 0 0 0 0 96 0 0 0 0 0 0 0 0 0 0 0 0 
0 0 85 0 0 0 0 0 35 97 0 0 0 0 0 35 0 
0 0 0 0 0 53 0 0 52 93 0 0 0 0 34 50 
0 0 0 0 0 0 0 0 0 0 18 0 0 0 0 
0 0 0 0 0 0 0 0 0 54 0 0 0 0 
63 0 0 0 0 69 23 66 3 0 0 0 0 
0 0 0 55 40 3 0 0 0 0 0 0 
0 0 0 98 0 9 0 21 0 7 100 
0 0 0 0 0 0 83 0 0 0 
38 83 13 0 0 45 0 12 0 
0 0 0 0 0 0 0 0 
0 0 0 0 0 0 0 
26 0 54 0 0 29 
0 0 0 0 0 
0 0 0 0 
0 42 0 
0 0 
0 

#i: 17
93 18 64 0 25 14 0 0 0 63 0 0 0 9 0 0 95 0 0 0 29 0 0 0 0 0 
0 0 0 0 0 96 0 0 0 0 45 0 0 36 0 0 0 0 0 30 0 0 0 0 0 
0 0 0 50 0 0 0 34 0 0 0 0 0 48 82 0 0 0 34 0 97 0 24 0 
62 99 0 21 0 0 0 0 33 0 59 0 0 0 82 25 0 0 30 20 0 94 0 
80 98 0 77 0 64 0 0 0 0 0 0 0 0 0 35 0 0 0 0 0 0 
0 0 0 64 0 0 0 55 95 93 0 9 0 1 0 53 0 75 0 0 0 
0 0 0 12 78 0 0 0 0 0 0 0 0 0 0 0 62 65 65 89 
0 0 32 0 29 0 28 0 0 32 73 0 0 0 0 0 0 0 75 
73 0 10 85 0 0 0 0 0 0 0 0 0 0 22 0 0 0 
0 98 80 7 0 87 0 0 0 0 5 0 0 0 0 76 0 
40 0 0 0 0 0 0 0 0 0 0 0 0 0 0 56 
0 34 0 2 0 0 0 0 0 0 0 79 75 0 0 
68 0 84 0 0 0 0 0 0 33 4 61 0 0 
57 0 0 0 0 0 50 65 0 0 88 0 0 
0 0 0 0 9 0 75 0 0 0 0 0 
0 0 0 0 0 0 69 77 0 0 0 
21 0 0 97 0 0 0 91 0 0 
0 0 0 95 0 28 0 0 0 
15 0 0 0 58 42 0 0 
0 10 0 15 0 0 26 
0 0 89 0 0 0 
0 0 0 0 0 
94 39 0 9 
30 0 0 
0 0 
0 

#i: 18
0 0 0 0 90 0 0 0 0 0 0 0 0 0 0 0 0 0 0 0 0 0 0 0 65 
68 0 14 0 0 0 71 20 0 0 0 25 42 0 0 0 0 0 0 0 0 0 0 0 
0 0 0 0 0 0 0 0 88 65 0 0 0 0 0 84 0 51 0 0 0 0 53 
0 0 0 0 0 0 1 0 52 0 0 0 0 0 91 0 0 0 0 0 35 83 
0 0 0 0 0 0 0 0 0 0 0 0 0 92 0 0 0 0 0 5 0 
0 0 0 84 0 0 58 0 0 51 0 95 0 0 0 0 0 32 0 0 
0 0 0 92 88 83 0 0 72 18 0 0 0 0 0 0 92 0 0 
41 79 0 0 24 36 0 0 0 38 0 0 89 71 74 0 0 9 
71 0 0 0 0 0 0 0 0 0 0 0 0 0 0 0 71 
0 72 0 78 0 0 0 4 0 0 0 94 46 0 0 0 
0 0 0 61 0 0 0 48 0 93 0 0 29 0 0 
0 38 94 23 43 75 13 0 24 0 45 0 0 0 
0 0 0 0 0 0 0 69 3 0 0 0 0 
0 0 0 15 0 0 0 0 90 0 0 0 
0 0 19 0 0 0 23 0 24 0 0 
0 0 0 0 0 0 33 0 0 0 
0 0 0 0 0 0 0 0 0 
64 75 0 0 0 0 0 0 
0 0 43 0 0 0 0 
0 96 0 0 30 0 
0 100 0 45 0 
70 0 0 0 
0 0 0 
0 33 
0 

#i: 19
100 0 83 0 0 0 65 90 0 0 65 0 21 0 2 0 15 0 0 0 7 0 75 0 
0 19 0 0 0 0 0 0 0 0 0 83 0 0 0 11 0 0 0 0 0 0 88 
0 0 0 0 0 0 0 0 0 0 0 0 0 4 0 0 0 60 0 57 0 21 
0 97 42 62 0 0 0 12 44 100 0 0 0 0 0 0 0 45 0 0 0 
0 73 0 5 69 0 0 0 0 0 0 53 0 0 0 0 0 0 0 0 
0 0 0 0 0 0 67 0 0 0 99 0 0 0 0 0 0 0 0 
0 0 3 0 0 23 16 0 0 0 0 0 0 0 95 40 36 28 
0 0 0 0 0 14 0 0 0 0 0 0 0 0 0 0 0 
0 2 0 65 13 7 0 0 0 0 92 87 0 0 0 0 
0 0 0 0 0 67 0 0 0 0 0 93 64 0 0 
0 0 0 0 0 12 0 9 0 0 0 0 0 0 
0 57 0 33 0 72 0 0 0 0 0 0 0 
0 28 71 0 0 83 0 0 26 0 0 0 
0 0 45 0 0 75 0 16 24 0 90 
86 0 57 0 0 97 0 0 0 0 
0 0 0 61 0 0 80 0 16 
0 1 0 0 0 0 0 0 
0 0 0 24 0 23 0 
0 68 0 0 0 89 
0 0 0 54 0 
44 0 0 0 
0 44 0 
0 0 
0 

#i: 20
34 0 0 0 97 87 0 0 0 0 0 0 0 0 0 0 0 0 0 71 0 0 0 
0 34 0 0 0 0 0 0 0 0 2 0 0 63 0 0 12 0 0 79 0 0 
0 0 0 79 0 0 1 0 0 0 0 93 0 0 0 0 48 0 73 0 0 
3 0 0 0 0 0 0 0 0 66 0 0 0 0 16 0 0 0 81 32 
87 0 0 0 88 0 0 0 63 0 0 0 0 0 0 50 0 0 61 
0 0 0 0 0 0 0 0 0 0 0 0 92 53 0 0 0 0 
0 7 0 77 0 0 0 0 43 0 0 0 0 0 0 0 0 
0 0 0 0 0 20 0 0 0 0 0 0 0 0 0 36 
0 0 70 0 0 0 0 0 0 0 0 0 0 0 77 
0 0 28 45 0 97 0 0 0 31 0 0 0 0 
0 29 0 0 0 0 0 0 0 79 0 0 0 
0 72 0 0 0 0 0 0 0 26 0 0 
0 0 27 0 0 0 0 0 0 0 0 
0 0 0 0 0 0 0 72 0 0 
48 23 8 0 0 45 0 0 0 
0 0 0 0 0 0 0 0 
0 0 0 0 0 0 0 
0 0 0 0 61 0 
0 35 0 13 0 
14 0 0 0 
82 0 0 
0 0 
0 

#i: 21
0 0 0 63 0 0 68 0 0 0 0 0 0 0 0 0 0 0 0 0 62 0 
0 0 0 81 0 0 0 0 0 1 0 0 0 0 4 0 0 0 82 13 0 
12 0 0 0 0 0 0 0 21 0 0 0 86 5 0 64 41 0 0 0 
0 0 0 37 0 0 0 0 0 17 0 0 12 0 0 0 0 0 0 
0 0 99 47 0 0 0 0 0 59 0 26 38 0 3 0 83 0 
0 0 0 0 0 0 14 0 0 0 0 0 62 0 94 80 0 
17 0 0 4 0 48 0 0 0 0 58 0 0 0 0 46 
74 58 0 0 0 0 77 0 0 0 0 6 0 0 0 
0 0 2 0 0 0 0 0 0 0 0 0 0 0 
0 0 0 39 0 0 0 0 78 6 0 65 0 
0 70 0 0 0 0 0 0 29 18 29 0 
0 0 0 0 0 77 0 0 0 0 52 
0 0 0 0 0 0 81 26 0 0 
0 48 0 0 0 0 0 27 0 
0 56 0 0 53 0 95 0 
0 0 98 64 44 53 0 
0 0 0 0 0 0 
62 0 0 0 3 
5 0 4 0 
0 75 0 
45 0 
0 

#i: 22
0 0 0 0 0 0 0 0 11 0 0 0 9 81 0 4 0 0 43 35 0 
0 0 0 0 0 18 0 0 0 0 78 0 59 0 33 0 0 0 0 35 
0 0 0 0 0 0 0 44 0 0 0 0 0 82 0 0 0 0 5 
0 0 0 0 0 28 72 0 0 0 0 95 17 0 0 0 0 20 
49 0 0 11 22 0 22 0 0 0 0 27 86 0 0 59 0 
0 0 44 0 0 31 0 0 0 0 0 0 54 86 0 0 
0 0 0 0 0 0 0 0 0 0 0 0 10 0 42 
85 98 0 0 0 0 0 0 0 57 0 0 85 0 
0 0 0 25 0 61 0 0 0 0 0 0 0 
0 0 87 0 0 0 0 0 0 0 61 63 
0 0 50 0 30 0 0 0 0 0 0 
0 0 0 48 0 32 57 0 0 0 
81 0 0 42 0 0 78 0 82 
0 0 0 0 0 0 34 0 
41 21 0 0 0 0 66 
0 0 0 10 0 0 
0 9 0 0 0 
4 0 25 0 
0 0 0 
0 0 
0 

#i: 23
0 0 82 0 0 0 53 0 88 0 0 86 0 0 5 0 0 0 0 85 
0 22 0 0 0 9 73 0 90 83 0 0 0 23 0 69 0 15 0 
0 0 32 0 0 0 76 0 0 0 0 19 37 0 0 0 0 69 
0 0 0 62 0 0 0 0 0 0 0 0 69 0 0 0 2 
0 0 48 0 0 0 0 0 0 0 0 0 30 0 0 0 
0 0 94 62 0 0 0 7 31 0 97 0 0 0 0 
0 95 12 0 0 0 0 0 37 0 0 41 0 0 
53 0 0 0 0 0 0 0 0 84 0 0 0 
0 27 0 0 0 0 83 10 42 0 93 0 
0 0 0 0 0 0 0 36 0 0 0 
0 0 0 0 0 9 36 0 0 94 
0 16 0 0 0 0 0 0 46 
0 74 9 0 24 0 0 0 
93 0 19 0 0 0 0 
0 0 0 0 0 0 
0 0 0 0 0 
0 0 0 0 
0 0 64 
0 80 
89 

#i: 24
0 46 0 0 0 10 43 0 0 0 0 0 0 39 0 0 0 10 0 
0 0 0 0 0 87 0 0 75 0 0 0 30 0 0 0 0 11 
0 0 0 0 0 0 34 0 0 77 0 0 0 0 0 0 0 
0 0 0 63 11 0 17 0 0 0 0 62 0 0 0 0 
85 0 0 0 100 0 0 0 0 0 0 0 12 0 0 
0 72 0 0 47 0 0 0 0 0 0 0 0 0 
0 0 0 76 97 0 0 0 12 99 59 97 0 
0 0 0 9 0 0 100 0 0 31 0 0 
0 79 18 65 52 4 0 0 59 0 9 
0 0 0 0 0 0 0 0 0 0 
8 0 0 0 98 0 35 0 0 
30 0 0 0 20 25 0 0 
0 0 0 0 0 0 0 
87 0 0 0 0 0 
0 0 0 12 0 
55 0 0 0 
0 0 48 
51 0 
0 

#i: 25
0 0 0 0 0 25 83 0 0 0 0 0 0 0 0 0 0 0 
39 0 0 0 0 0 44 0 94 28 77 0 16 0 0 0 0 
31 0 0 0 0 0 0 35 0 0 0 0 0 82 78 0 
0 0 0 0 0 0 0 49 0 16 0 0 0 0 0 
0 0 89 0 0 0 0 99 69 0 0 0 10 0 
0 55 0 15 0 0 0 0 0 0 0 0 0 
0 0 0 0 0 98 0 0 0 0 0 0 
70 0 0 8 0 70 0 0 0 0 0 
0 0 0 0 26 67 0 97 0 0 
0 0 0 0 0 0 66 82 0 
42 0 0 0 0 65 0 0 
0 28 0 0 83 0 0 
0 0 0 0 0 0 
0 0 0 0 0 
0 63 0 0 
20 0 48 
44 0 
0 

#i: 26
19 0 0 0 0 76 0 0 0 0 93 0 0 0 96 0 0 
0 0 0 85 18 52 0 0 44 0 0 0 0 0 0 0 
0 57 0 9 0 0 0 0 0 0 0 0 24 0 0 
19 0 0 0 3 0 0 0 0 0 0 15 0 14 
0 42 28 0 69 0 35 0 0 0 0 87 0 
0 0 0 0 0 36 15 0 78 0 0 0 
74 0 0 0 0 0 0 0 0 0 0 
0 53 0 99 0 0 0 0 48 0 
13 0 0 23 54 0 0 0 36 
0 13 0 3 0 2 0 0 
30 12 48 0 7 0 15 
33 84 0 0 0 0 
5 29 0 0 0 
0 0 0 0 
72 0 0 
0 0 
0 

#i: 27
0 46 0 0 0 0 0 0 0 0 0 0 0 86 29 61 
0 0 0 0 39 0 0 0 0 0 79 0 86 0 0 
0 0 52 0 33 34 0 81 93 0 31 0 12 0 
0 0 0 0 0 0 0 0 0 0 73 0 9 
0 0 0 0 0 0 49 0 0 41 0 0 
37 0 0 0 27 0 0 67 0 40 0 
0 90 58 0 0 0 59 41 0 54 
0 0 0 49 0 0 0 0 0 
0 63 0 0 0 0 87 0 
0 0 0 0 51 0 0 
97 96 0 0 20 0 
0 38 18 0 0 
0 0 0 0 
0 0 15 
0 0 
44 

#i: 28
0 0 0 25 0 0 8 0 0 0 0 0 0 0 80 
0 0 0 0 0 0 0 0 0 0 0 52 42 0 
0 0 96 0 89 0 0 54 66 0 0 0 0 
0 0 0 0 75 0 0 7 0 0 0 0 
0 53 0 32 0 0 71 0 0 83 0 
0 67 0 35 0 0 0 62 36 0 
51 0 0 88 0 0 0 67 0 
19 0 0 0 0 0 61 0 
0 0 0 0 41 76 0 
0 0 0 19 0 39 
81 0 0 0 0 
0 0 0 0 
0 0 0 
0 0 
0 

#i: 29
0 0 98 0 50 0 51 0 0 0 0 0 0 99 
0 0 0 62 99 0 0 0 0 0 0 86 70 
99 0 0 0 0 0 0 0 47 0 0 0 
0 0 0 23 0 96 0 0 0 78 2 
0 0 0 38 0 82 0 0 0 0 
0 0 56 0 10 0 0 0 0 
97 25 0 0 0 0 27 0 
0 84 0 0 0 0 0 
0 17 0 0 0 0 
0 0 0 0 0 
0 7 20 0 
9 0 0 
97 0 
55 

#i: 30
0 0 88 52 0 0 0 0 41 30 0 0 0 
0 0 0 0 0 0 0 92 51 0 49 0 
0 0 25 0 0 0 0 0 0 17 0 
0 0 0 0 78 0 0 0 0 0 
0 0 0 0 0 87 78 0 0 
0 0 0 0 71 0 0 26 
0 0 0 72 0 36 0 
44 0 0 0 7 0 
0 0 0 9 0 
66 0 0 0 
0 0 0 
15 0 
0 

#i: 31
0 0 0 0 0 0 0 0 0 0 0 0 
0 11 0 0 0 0 0 0 0 80 0 
0 0 0 0 0 77 0 0 0 17 
0 0 0 0 0 0 68 0 0 
63 0 0 42 0 0 83 0 
22 0 0 0 32 0 0 
0 0 0 68 76 0 
0 41 0 0 0 
0 0 0 0 
0 0 86 
0 0 
18 

#i: 32
0 0 0 0 70 0 0 0 0 10 0 
0 13 0 0 67 6 0 0 0 27 
0 0 0 88 0 0 0 0 0 
0 0 13 0 0 0 0 0 
0 60 0 58 0 46 0 
0 0 0 0 0 0 
0 0 55 0 0 
13 0 0 0 
20 0 0 
89 13 
0 

#i: 33
0 0 0 0 0 0 0 0 56 95 
0 50 0 76 0 0 50 0 0 
0 0 87 0 0 72 0 0 
0 0 5 2 0 45 0 
70 0 0 6 0 38 
100 0 0 0 89 
0 52 30 0 
0 0 0 
0 30 
0 

#i: 34
0 0 100 0 0 0 0 45 21 
0 94 94 0 0 86 0 0 
44 0 29 0 0 0 0 
12 0 39 4 0 65 
0 0 0 12 0 
0 0 0 0 
0 0 0 
0 50 
0 

#i: 35
0 0 0 14 0 0 0 0 
0 0 0 0 0 0 0 
58 0 0 0 0 0 
93 0 0 0 0 
53 0 55 0 
31 0 0 
0 0 
0 

#i: 36
0 73 0 0 0 0 51 
76 0 0 0 95 0 
74 25 0 71 0 
0 0 0 0 
72 0 0 
5 0 
0 

#i: 37
0 0 0 87 44 0 
0 0 0 0 0 
0 0 9 14 
46 0 24 
0 3 
0 

#i: 38
36 0 0 94 0 
0 0 0 0 
80 30 0 
46 0 
89 

#i: 39
99 54 63 0 
88 0 7 
0 26 
40 

#i: 40
23 0 0 
0 0 
0 

#i: 41
0 0 
59 

#i: 42
35 

#i: 43

#i: 44

ckp-45-0.25.txt